Route #1: 15 56 2 61 20 52 59 62 5 31
Route #2: 17 57 49 22
Route #3: 42 58 10 24 18 28 1 33
Route #4: 63 23 39 55 11 40 25
Route #5: 3 29 67 36 32 6 38 53 19 50
Route #6: 35 65 14 43 47 4 60
Route #7: 13 21 26 51 8 41 37
Route #8: 27 46 30 9 48 45 7 64
Route #9: 16 34 44 12 54 66
cost 1519.240478515625